49646 164 27926 113940 54482 0.96
49852 152 34169 137566 55244 0.8
49988 158 36177 145168 55582 1
49852 170 22132 91104 55980 0.92
49762 148 32583 131055 54774 0.9
49456 165 19974 82799 56502 0.94
49428 156 27580 113421 55472 0.92
49448 157 37010 152242 55802 0.98
49312 185 39941 164477 54844 0.96
49682 182 22204 89623 56092 1
